Zn6 H42 C18 N6 O36
1.0
  10.899057644203701   -6.292573864826506    0.000000000000000
   0.000000000000000   12.585147729653013    0.000000000000000
   0.000000000000000    0.000000000000000    8.294991511060489
Zn O N C H
6 36 6 18 42
direct
   0.335184598798770    0.331566268320000    0.586893350242000 Zn
   0.664815401200000    0.668433731678770    0.086893350242000 Zn
   0.331566268320000    0.996381669520620    0.086893350242000 Zn
   0.003618330478150    0.335184598798770    0.086893350242000 Zn
   0.668433731678770    0.003618330478150    0.586893350242000 Zn
   0.996381669520620    0.664815401200000    0.586893350242000 Zn
   0.426378607162720    0.263515055196050    0.442257475591000 O
   0.573621392836050    0.736484944802720    0.942257475591000 O
   0.263515055196050    0.837136448032720    0.942257475591000 O
   0.162863551966050    0.426378607162720    0.942257475591000 O
   0.736484944802720    0.162863551966050    0.442257475591000 O
   0.837136448032720    0.573621392836050    0.442257475591000 O
   0.429696451596050    0.154711850112720    0.232441810661000 O
   0.570303548402720    0.845288149886050    0.732441810661000 O
   0.154711850112720    0.725015398516050    0.732441810661000 O
   0.274984601482720    0.429696451596050    0.732441810661000 O
   0.845288149886050    0.274984601482720    0.232441810661000 O
   0.725015398516050    0.570303548402720    0.232441810661000 O
   0.400394128789380    0.492372374619380    0.441808788551000 O
   0.599605871209380    0.507627625379380    0.941808788551000 O
   0.492372374619380    0.091978245829383    0.941808788551000 O
   0.908021754169380    0.400394128789380    0.941808788551000 O
   0.507627625379380    0.908021754169380    0.441808788551000 O
   0.091978245829383    0.599605871209380    0.441808788551000 O
   0.504994802482720    0.605366767736050    0.230129080101000 O
   0.495005197516050    0.394633232262720    0.730129080101000 O
   0.605366767736050    0.100371965252720    0.730129080101000 O
   0.899628034746050    0.504994802482720    0.730129080101000 O
   0.394633232262720    0.899628034746050    0.230129080101000 O
   0.100371965252720    0.495005197516050    0.230129080101000 O
   0.174420874358880    0.234987895849880    0.445806605421000 O
   0.825579125639880    0.765012104148880    0.945806605421000 O
   0.234987895849880    0.060567021490383    0.945806605421000 O
   0.939432978508380    0.174420874358880    0.945806605421000 O
   0.765012104148880    0.939432978508380    0.445806605421000 O
   0.060567021490383    0.825579125639880    0.445806605421000 O
   0.069507257168383    0.241072747188880    0.233048975011000 O
   0.930492742830380    0.758927252809880    0.733048975011000 O
   0.241072747188880    0.171565490019880    0.733048975011000 O
   0.828434509978880    0.069507257168383    0.733048975011000 O
   0.758927252809880    0.828434509978880    0.233048975011000 O
   0.171565490019880    0.930492742830380    0.233048975011000 O
   0.666666666666050    0.333333333332720    0.536048795522000 N
   0.333333333332720    0.666666666666050    0.036048795522000 N
   0.333333333332720    0.666666666666050    0.536291456341000 N
   0.666666666666050    0.333333333332720    0.036291456341000 N
  -0.000000000000617   -0.000000000000617    0.138462572341000 N
  -0.000000000000617   -0.000000000000617    0.638462572341000 N
   0.373528547426050    0.185155686212720    0.330768009371000 C
   0.626471452572720    0.814844313786050    0.830768009371000 C
   0.185155686212720    0.811627138786050    0.830768009371000 C
   0.188372861212720    0.373528547426050    0.830768009371000 C
   0.814844313786050    0.188372861212720    0.330768009371000 C
   0.811627138786050    0.626471452572720    0.330768009371000 C
   0.472853131486880    0.515545961001880    0.323499572321000 C
   0.527146868511880    0.484454038996880    0.823499572321000 C
   0.515545961001880    0.042692829514383    0.823499572321000 C
   0.957307170484380    0.472853131486880    0.823499572321000 C
   0.484454038996880    0.957307170484380    0.323499572321000 C
   0.042692829514383    0.527146868511880    0.323499572321000 C
   0.143056970556050    0.291859327682720    0.349817992931000 C
   0.856943029442720    0.708140672316050    0.849817992931000 C
   0.291859327682720    0.148802357126050    0.849817992931000 C
   0.851197642872720    0.143056970556050    0.849817992931000 C
   0.708140672316050    0.851197642872720    0.349817992931000 C
   0.148802357126050    0.856943029442720    0.349817992931000 C
   0.272981063339380    0.142649555659380    0.321406432191000 H
   0.727018936659380    0.857350444339380    0.821406432191000 H
   0.142649555659380    0.869668492319380    0.821406432191000 H
   0.130331507679380    0.272981063339380    0.821406432191000 H
   0.857350444339380    0.130331507679380    0.321406432191000 H
   0.869668492319380    0.727018936659380    0.321406432191000 H
   0.509546991612380    0.453297496256380    0.303241697231000 H
   0.490453008386380    0.546702503742380    0.803241697231000 H
   0.453297496256380    0.943750504643380    0.803241697231000 H
   0.056249495355383    0.509546991612380    0.803241697231000 H
   0.546702503742380    0.056249495355383    0.303241697231000 H
   0.943750504643380    0.490453008386380    0.303241697231000 H
   0.180825834649380    0.391379889119380    0.365928846821000 H
   0.819174165349380    0.608620110879380    0.865928846821000 H
   0.391379889119380    0.210554054469380    0.865928846821000 H
   0.789445945529380    0.180825834649380    0.865928846821000 H
   0.608620110879380    0.789445945529380    0.365928846821000 H
   0.210554054469380    0.819174165349380    0.365928846821000 H
   0.577883592319380    0.307358096279380    0.496527314111000 H
   0.422116407679380    0.692641903719380    0.996527314111000 H
   0.307358096279380    0.729474503959380    0.996527314111000 H
   0.270525496039380    0.577883592319380    0.996527314111000 H
   0.692641903719380    0.270525496039380    0.496527314111000 H
   0.729474503959380    0.422116407679380    0.496527314111000 H
   0.666666666666050    0.333333333332720    0.658940433111000 H
   0.333333333332720    0.666666666666050    0.158940433111000 H
   0.358562850699380    0.603181330159380    0.496785650291000 H
   0.641437149299380    0.396818669839380    0.996785650291000 H
   0.603181330159380    0.244618479459380    0.996785650291000 H
   0.755381520539380    0.358562850699380    0.996785650291000 H
   0.396818669839380    0.755381520539380    0.496785650291000 H
   0.244618479459380    0.641437149299380    0.496785650291000 H
   0.333333333332720    0.666666666666050    0.659244868261000 H
   0.666666666666050    0.333333333332720    0.159244868261000 H
   0.026515805641383    0.088994067530383    0.177908266851000 H
   0.973484194357380    0.911005932468380    0.677908266851000 H
   0.088994067530383    0.062478261888383    0.677908266851000 H
   0.937521738110380    0.026515805641383    0.677908266851000 H
   0.911005932468380    0.937521738110380    0.177908266851000 H
   0.062478261888383    0.973484194357380    0.177908266851000 H
  -0.000000000000617   -0.000000000000617    0.015552271431500 H
  -0.000000000000617   -0.000000000000617    0.515552271431500 H
