Zn7 H50 C36 O26
1.0
  10.601864596113987    0.067379808317236   -0.014820162189164
  -3.251618487474117   10.878278572728792    0.033205376118832
  -5.056871398043415   -3.453434077674480   10.366900448748984
Zn O C H
7 26 36 50
direct
   0.781833710600000    0.532210752410000    0.709020150330000 Zn
   0.218166289400000    0.467789247590000    0.290979849670000 Zn
   0.677115300310000    0.288013137520000    0.789869319500000 Zn
   0.322884699690000    0.711986862480000    0.210130680500000 Zn
  -0.000000000000000    0.500000000000000   -0.000000000000000 Zn
   0.522136198230000    0.639685110160000    0.951632643408000 Zn
   0.477863801770000    0.360314889840000    0.048367356592000 Zn
   0.688416924850000    0.386127600180000    0.553978127530000 O
   0.311583075150000    0.613872399820000    0.446021872470000 O
   0.788894983640000    0.478302675410000    0.861416253440000 O
   0.211105016360000    0.521697324590000    0.138583746560000 O
   0.528608294240000    0.261672920850000    0.606083655290000 O
   0.471391705760000    0.738327079150000    0.393916344710000 O
   0.361316509900000    0.378208753100000    0.334541353590000 O
   0.638683490100000    0.621791246900000    0.665458646410000 O
   0.375240604560000    0.369567902970000    0.153933103220000 O
   0.624759395440000    0.630432097030000    0.846066896780000 O
   0.972260981457500    0.668421598380000    0.761194717650000 O
   0.027739018542500    0.331578401620000    0.238805282350000 O
   0.107513066150000    0.673621268250000    0.967133473919000 O
   0.892486933850000    0.326378731750000    0.032866526081000 O
   0.466913268640000    0.793757481680000    0.961334750538500 O
   0.533086731360000    0.206242518320000    0.038665249461500 O
   0.443999451260000    0.755533611460000    0.127796213710000 O
   0.556000548740000    0.244466388540000    0.872203786290000 O
   0.325329500290000    0.506699686570000    0.828026147620000 O
   0.674670499710000    0.493300313430000    0.171973852380000 O
   0.303439218400000    0.325603590340000    0.886128167700000 O
   0.696560781600000    0.674396409660000    0.113871832300000 O
   0.018557107182500    0.388979036270000    0.855291997190000 O
   0.981442892817500    0.611020963730000    0.144708002810000 O
   0.801088805300000    0.212083620100000    0.747293940340000 O
   0.198911194700000    0.787916379900000    0.252706059660000 O
   0.572668267080000    0.288372941070000    0.527025382140000 C
   0.427331732920000    0.711627058930000    0.472974617860000 C
   0.489983674470000    0.191242403530000    0.391365465080000 C
   0.510016325530000    0.808757596470000    0.608634534920000 C
   0.579997472200000    0.103506643170000    0.400689420970000 C
   0.420002527800000    0.896493356830000    0.599310579030000 C
   0.327084480210000    0.109737135350000    0.352810003350000 C
   0.672915519790000    0.890262864650000    0.647189996650000 C
   0.497354253510000    0.258218287320000    0.291598704270000 C
   0.502645746490000    0.741781712680000    0.708401295730000 C
   0.405638221430000    0.340883827980000    0.258779613130000 C
   0.594361778570000    0.659116172020000    0.741220386870000 C
   0.082620983508500    0.721694920970000    0.876281626400000 C
   0.917379016491500    0.278305079030000    0.123718373600000 C
   0.188526353540000    0.860606160820000    0.904478699768000 C
   0.811473646460000    0.139393839180000    0.095521300232000 C
   0.107411442800000    0.948820052379500    0.924511994898000 C
   0.892588557200000    0.051179947620500    0.075488005102000 C
   0.214094233280000    0.874228486550000    0.790112186360000 C
   0.785905766720000    0.125771513450000    0.209887813640000 C
   0.337918116570000    0.901971105968000    0.032244998160000 C
   0.662081883430000    0.098028894032000    0.967755001840000 C
   0.420057579370000    0.811519936060000    0.041335555578500 C
   0.579942420630000    0.188480063940000    0.958664444421500 C
   0.258662014130000    0.388045604610000    0.809092245160000 C
   0.741337985870000    0.611954395390000    0.190907754840000 C
   0.116641376000000    0.308462042650000    0.678477592760000 C
   0.883358624000000    0.691537957350000    0.321522407240000 C
   0.054594170221500    0.394910414250000    0.603195037390000 C
   0.945405829778500    0.605089585750000    0.396804962610000 C
   0.166472220830000    0.226487429030000    0.603038520100000 C
   0.833527779170000    0.773512570970000    0.396961479900000 C
   0.997032847640350    0.215517973840000    0.699009651920000 C
   0.002967152359650    0.784482026160000    0.300990348080000 C
   0.935435073228500    0.278751262020000    0.773703173100000 C
   0.064564926771500    0.721248737980000    0.226296826900000 C
   0.737668080240000    0.527734717600000    0.886861282140000 H
   0.262331919760000    0.472265282400000    0.113138717860000 H
   0.585343283900000    0.058282164412000    0.475666741550000 H
   0.414656716100000    0.941717835588000    0.524333258450000 H
   0.695400181360000    0.159011402960000    0.423442010740000 H
   0.304599818640000    0.840988597040000    0.576557989260000 H
   0.525433235170000    0.027006908872500    0.308654234140000 H
   0.474566764830000    0.972993091127500    0.691345765860000 H
   0.271442123320000    0.039752495469500    0.256534097180000 H
   0.728557876680000    0.960247504530500    0.743465902820000 H
   0.263116089830000    0.170422976630000    0.352585925610000 H
   0.736883910170000    0.829577023370000    0.647414074390000 H
   0.324103966380000    0.055297161551000    0.419638185990000 H
   0.675896033620000    0.944702838449000    0.580361814010000 H
   0.614785935900000    0.320742308910000    0.325020522630000 H
   0.385214064100000    0.679257691090000    0.674979477370000 H
   0.461152619920000    0.185270687790000    0.201777319420000 H
   0.538847380080000    0.814729312210000    0.798222680580000 H
   0.000489769587715    0.923978778999500    0.836516856820000 H
   0.999510230412280    0.076021221000500    0.163483143180000 H
   0.178532759610000    0.050046418572000    0.947655360359500 H
   0.821467240390000    0.949953581428000    0.052344639640500 H
   0.083916902858000    0.939299341277500    0.003819371851650 H
   0.916083097142000    0.060700658722500    0.996180628148350 H
   0.272228361030000    0.813810656150000    0.772932101650000 H
   0.727771638970000    0.186189343850000    0.227067898350000 H
   0.282389194470000    0.975128998127500    0.809083690400000 H
   0.717610805530000    0.024871001872500    0.190916309600000 H
   0.105616356610000    0.845660778100000    0.702798509570000 H
   0.894383643390000    0.154339221900000    0.297201490430000 H
   0.413188830030000    0.997257491969500    0.043184741052500 H
   0.586811169970000    0.002742508030500    0.956815258947500 H
   0.314222781210000    0.912338956590000    0.112529783530000 H
   0.685777218790000    0.087661043410000    0.887470216470000 H
   0.951791479079000    0.335211013890000    0.511766509910000 H
   0.048208520921000    0.664788986110000    0.488233490090000 H
   0.136545412320000    0.453197708000000    0.580577507550000 H
   0.863454587680000    0.546802292000000    0.419422492450000 H
   0.027782993889000    0.460696322880000    0.657706438610000 H
   0.972217006111000    0.539303677120000    0.342293561390000 H
   0.211689997280000    0.163741247160000    0.654946414720000 H
   0.788310002720000    0.836258752840000    0.345053585280000 H
   0.253654218310000    0.287853084920000    0.587342706430000 H
   0.746345781690000    0.712146915080000    0.412657293570000 H
   0.069249776112000    0.166057151160000    0.508344170960000 H
   0.930750223888000    0.833942848840000    0.491655829040000 H
   0.902079192228000    0.150185108430000    0.605401809000000 H
   0.097920807772000    0.849814891570000    0.394598191000000 H
   0.045893479388500    0.154847842630000    0.752423541790000 H
   0.954106520611500    0.845152157370000    0.247576458210000 H
