Cu12 H12 C12 N24
1.0
  10.425313604466979   -6.019057615956127    0.000000000000000
   0.000000000000000   12.038115231912254    0.000000000000000
   0.000000000000000    0.000000000000000    6.157874887983813
Cu N C H
12 24 12 12
direct
   0.040239066200500    0.424253045030330    0.500000000000000 Cu
   0.959760933799830    0.384013978830000    0.000000000000000 Cu
   0.575746954970000    0.615986021170330    0.500000000000000 Cu
   0.575746954970000    0.959760933799830    0.000000000000000 Cu
   0.384013978830000    0.424253045030330    0.000000000000000 Cu
   0.615986021170330    0.040239066200500    0.500000000000000 Cu
   0.384013978830000    0.959760933799830    0.500000000000000 Cu
   0.615986021170330    0.575746954970000    0.000000000000000 Cu
   0.424253045030330    0.040239066200500    0.000000000000000 Cu
   0.959760933799830    0.575746954970000    0.500000000000000 Cu
   0.424253045030330    0.384013978830000    0.500000000000000 Cu
   0.040239066200500    0.615986021170330    0.000000000000000 Cu
   0.647544161720170    0.210725866970170    0.500000000000000 N
   0.352455838280170    0.563181705250170    0.000000000000000 N
   0.789274133030170    0.436818294750170    0.500000000000000 N
   0.789274133030170    0.352455838280170    0.000000000000000 N
   0.563181705250170    0.210725866970170    0.000000000000000 N
   0.436818294750170    0.647544161720170    0.500000000000000 N
   0.563181705250170    0.352455838280170    0.500000000000000 N
   0.436818294750170    0.789274133030170    0.000000000000000 N
   0.210725866970170    0.647544161720170    0.000000000000000 N
   0.352455838280170    0.789274133030170    0.500000000000000 N
   0.210725866970170    0.563181705250170    0.500000000000000 N
   0.647544161720170    0.436818294750170    0.000000000000000 N
   0.869342554680170    0.296637270090170    0.500000000000000 N
   0.130657445320170    0.427294715410170    0.000000000000000 N
   0.703362729910170    0.572705284590170    0.500000000000000 N
   0.703362729910170    0.130657445320170    0.000000000000000 N
   0.427294715410170    0.296637270090170    0.000000000000000 N
   0.572705284590170    0.869342554680170    0.500000000000000 N
   0.427294715410170    0.130657445320170    0.500000000000000 N
   0.572705284590170    0.703362729910170    0.000000000000000 N
   0.296637270090170    0.869342554680170    0.000000000000000 N
   0.130657445320170    0.703362729910170    0.500000000000000 N
   0.296637270090170    0.427294715410170    0.500000000000000 N
   0.869342554680170    0.572705284590170    0.000000000000000 N
   0.768677933730170    0.314352804070170    0.500000000000000 C
   0.231322066270170    0.545674870340170    0.000000000000000 C
   0.685647195930170    0.454325129660170    0.500000000000000 C
   0.685647195930170    0.231322066270170    0.000000000000000 C
   0.545674870340170    0.314352804070170    0.000000000000000 C
   0.454325129660170    0.768677933730170    0.500000000000000 C
   0.545674870340170    0.231322066270170    0.500000000000000 C
   0.454325129660170    0.685647195930170    0.000000000000000 C
   0.314352804070170    0.768677933730170    0.000000000000000 C
   0.231322066270170    0.685647195930170    0.500000000000000 C
   0.314352804070170    0.545674870340170    0.500000000000000 C
   0.768677933730170    0.454325129660170    0.000000000000000 C
   0.840767789166830    0.201106389323500    0.500000000000000 H
   0.159232210833500    0.360338600156830    0.000000000000000 H
   0.798893610676830    0.639661399843500    0.500000000000000 H
   0.798893610676830    0.159232210833500    0.000000000000000 H
   0.360338600156830    0.201106389323500    0.000000000000000 H
   0.639661399843500    0.840767789166830    0.500000000000000 H
   0.360338600156830    0.159232210833500    0.500000000000000 H
   0.639661399843500    0.798893610676830    0.000000000000000 H
   0.201106389323500    0.840767789166830    0.000000000000000 H
   0.159232210833500    0.798893610676830    0.500000000000000 H
   0.201106389323500    0.360338600156830    0.500000000000000 H
   0.840767789166830    0.639661399843500    0.000000000000000 H
