Ag1 H8 C12 N2 Cl1
1.0
   6.156173910036864   -5.080198329433171   -0.106141775692030
   6.156173910036864    5.080198329433171   -0.106141775692030
  -1.149325977573932    0.000000000000000    4.127743222417534
Ag Cl N C H
1 1 2 12 8
direct
   0.989594002090000    0.010405997909000   -0.000000000000000 Ag
   0.854540849799500    0.145459150199500    0.500000000000000 Cl
   0.088809429087500    0.724955044369500    0.118757401040000 N
   0.275044955629500    0.911190570911500    0.881242598960000 N
   0.001997811491800    0.638329258979500    0.245820766170000 C
   0.361670741019500    0.998002188507200    0.754179233830000 C
   0.067228743480000    0.472733412629500    0.320231949930000 C
   0.527266587369500    0.932771256519000    0.679768050070000 C
   0.230490173989500    0.396700600889500    0.261320530020000 C
   0.603299399109500    0.769509826009500    0.738679469980000 C
   0.327833856209500    0.486280396489500    0.133000503110000 C
   0.513719603509500    0.672166143789500    0.866999496890000 C
   0.250360423349500    0.653484006589500    0.065621953741500 C
   0.346515993409500    0.749639576649500    0.934378046258500 C
   0.497271852679500    0.414164331039500    0.066012870162000 C
   0.585835668959500    0.502728147319500    0.933987129838000 C
   0.873888203789500    0.703639674779500    0.288275645770000 H
   0.296360325219500    0.126111796209500    0.711724354230000 H
  -0.010314091590000    0.405179688159500    0.417911534630000 H
   0.594820311839500    1.010314091589000    0.582088465370000 H
   0.285335927059500    0.267518343349500    0.311409884870000 H
   0.732481656649500    0.714664072939500    0.688590115130000 H
   0.556404879779500    0.287547303969500    0.125217041580000 H
   0.712452696029500    0.443595120219500    0.874782958420000 H
