Li2 Nb2 O6
1.0
   4.838003645692586   -2.565315422445153    0.000000000000000
   4.838003645692586    2.565315422445153    0.000000000000000
   3.477764237344966    0.000000000000000    4.229926524396737
Li Nb O
2 2 6
direct
   0.282008335200000    0.282008335200000    0.282008335200000 Li
   0.782008335200000    0.782008335200000    0.782008335200000 Li
   0.999661058700000    0.999661058700000    0.999661058700000 Nb
   0.499661058700000    0.499661058700000    0.499661058700000 Nb
   0.719888861400000    0.110528730800000    0.361513013900000 O
   0.361513013900000    0.719888861400000    0.110528730800000 O
   0.110528730800000    0.361513013900000    0.719888861400000 O
   0.219888861400000    0.861513013900000    0.610528730800000 O
   0.610528730800000    0.219888861400000    0.861513013900000 O
   0.861513013900000    0.610528730800000    0.219888861400000 O
