 Al F  O  C  H
   1.0
      6.6013583310       0.0000000000       0.0000000000
      0.0000000000      16.3256564300       0.0000000000
      3.3006791639       8.1628282096       6.7554352522
 Al F  O  C  H
   2   2   8   16   8
Direct
   0.5000000000  0.5000000000  0.5000000000
   0.0000000000  0.5000000000  0.5000000000
   0.3083890848  0.5583890848  0.3832218305
   0.6916109152  0.4416109152  0.6167781695
   0.3310372976  0.3266108990  0.6799078532
   0.6689627024  0.6733891010  0.3200921468
   0.9890548492  0.4934812478  0.6799078532
   0.0109451508  0.5065187522  0.3200921468
   0.6689627024  0.5065187522  0.3200921468
   0.3310372976  0.4934812478  0.6799078532
   0.0109451508  0.6733891010  0.3200921468
   0.9890548492  0.3266108990  0.6799078532
   0.8479687903  0.0653184073  0.9361449012
   0.1520312097  0.9346815927  0.0638550988
   0.2158863085  0.4985366915  0.9361449012
   0.7841136915  0.5014633085  0.0638550988
   0.1520312097  0.5014633085  0.0638550988
   0.8479687903  0.4985366915  0.9361449012
   0.7841136915  0.9346815927  0.0638550988
   0.2158863085  0.0653184073  0.9361449012
   0.0642155809  0.1313352193  0.8715688382
   0.9357844191  0.8686647807  0.1284311618
   0.0642155809  0.4970959425  0.8715688382
   0.9357844191  0.5029040575  0.1284311618
   0.1331904841  0.2717838231  0.7336190318
   0.8668095159  0.7282161769  0.2663809682
   0.1331904841  0.4945971451  0.7336190318
   0.8668095159  0.5054028549  0.2663809682
   0.2673127424  0.8817799101  0.1154459171
   0.7326872576  0.1182200899  0.8845540829
   0.6172413405  0.5027741728  0.1154459171
   0.3827586595  0.4972258272  0.8845540829
   0.7326872576  0.4972258272  0.8845540829
   0.2673127424  0.5027741728  0.1154459171
   0.3827586595  0.1182200899  0.8845540829
   0.6172413405  0.8817799101  0.1154459171