Sr2 H8 C8 O12
1.0
   3.979490053044704   -5.012368247066580    0.000000000000000
   3.979490053044704    5.012368247066580    0.000000000000000
   0.000000000000000    0.000000000000000    7.558949891656276
Sr O C H
2 12 8 8
direct
   0.088215141611000    0.911784858390000    0.750000000000000 Sr
   0.911784858390000    0.088215141611000    0.250000000000000 Sr
   0.088015393228500    0.514811511740500    0.703533867480000 O
   0.911984606772500    0.485188488260500    0.203533867480000 O
   0.485188488260500    0.911984606772500    0.796466132520000 O
   0.514811511740500    0.088015393228500    0.296466132520000 O
   0.928150681641500    0.201411406010500    0.576864596330250 O
   0.071849318359500    0.798588593990500    0.076864596330250 O
   0.798588593990500    0.071849318359500    0.923135403669750 O
   0.201411406010500    0.928150681641500    0.423135403669750 O
   0.732913479660500    0.652070886370500    0.701509793530000 O
   0.267086520340500    0.347929113630500    0.201509793530000 O
   0.347929113630500    0.267086520340500    0.798490206470000 O
   0.652070886370500    0.732913479660500    0.298490206470000 O
   0.924833285681500    0.378773469230500    0.649461360800000 C
   0.075166714319500    0.621226530770500    0.149461360800000 C
   0.621226530770500    0.075166714319500    0.850538639200000 C
   0.378773469230500    0.924833285681500    0.350538639200000 C
   0.702255797210500    0.429091865800500    0.673534237710000 C
   0.297744202790500    0.570908134200500    0.173534237710000 C
   0.570908134200500    0.297744202790500    0.826465762290000 C
   0.429091865800500    0.702255797210500    0.326465762290000 C
   0.611984848750500    0.378200250070500    0.550639281290750 H
   0.388015151250500    0.621799749930500    0.050639281290750 H
   0.621799749930500    0.388015151250500    0.949360718709250 H
   0.378200250070500    0.611984848750500    0.449360718709250 H
   0.606714467140500    0.706342223560500    0.740127519880000 H
   0.393285532860500    0.293657776440500    0.240127519880000 H
   0.293657776440500    0.393285532860500    0.759872480120000 H
   0.706342223560500    0.606714467140500    0.259872480120000 H
