Cu2 H8 C8 N4 Cl2
1.0
  11.505686689294075    0.000000000000000    0.000000000000000
   0.000000000000000    3.781014701921565    0.000000000000000
   0.000000000000000    0.000000000000000    6.423998103544264
Cu Cl N C H
2 2 4 8 8
direct
   0.500000000000000    0.500000000000000    0.333859818777060 Cu
  -0.000000000000000    0.500000000000000    0.333859818777060 Cu
   0.500000000000000   -0.000000000000000    0.119346615002050 Cl
  -0.000000000000000   -0.000000000000000    0.119346615002050 Cl
   0.353708698519150    0.476850434188620    0.500143388563480 N
   0.646291301480850    0.523149565811380    0.500143388563480 N
   0.146291301480850    0.476850434188620    0.500143388563480 N
   0.853708698519150    0.523149565811380    0.500143388563480 N
   0.250000000000000    0.550637906652390    0.414376479609010 C
   0.750000000000000    0.449362093347600    0.414376479609010 C
   0.353165745404170    0.329259194068960    0.692137059831600 C
   0.646834254595830    0.670740805931040    0.692137059831600 C
   0.146834254595830    0.329259194068960    0.692137059831600 C
   0.853165745404170    0.670740805931040    0.692137059831600 C
   0.250000000000000    0.255731705515610    0.794962317630590 C
   0.750000000000000    0.744268294484390    0.794962317630590 C
   0.250000000000000    0.677346507386290    0.262065760356130 H
   0.750000000000000    0.322653492613710    0.262065760356130 H
   0.436606340430480    0.268423519814940    0.763420250549180 H
   0.563393659569520    0.731576480185060    0.763420250549180 H
   0.063393659569522    0.268423519814940    0.763420250549180 H
   0.936606340430480    0.731576480185060    0.763420250549180 H
   0.250000000000000    0.139865985289290    0.949727610738090 H
   0.750000000000000    0.860134014710710    0.949727610738090 H
